StudentsNr = 10;
InstructorsNr = 73;
DaysNr = 1;
SlotsPerDay = 15;
AvailabilitySlotsLenght = 15;
RoomNr = 2;
ProgrammNr = 2;
DegreeNr = 1;
RolesNr = 3;
CoursesNr = 9;
InstructorsProgramm = [{2}, {1}, {2}, {1, 2}, {1}, {2}, {1}, {1}, {1}, {2}, {1, 2}, {1}, {2}, {2}, {2}, {2}, {1, 2}, {1}, {1}, {2}, {1}, {1, 2}, {1, 2}, {1, 2}, {1}, {1, 2}, {1, 2}, {1}, {2}, {1, 2}, {1}, {2}, {1}, {1}, {2}, {1, 2}, {1, 2}, {1, 2}, {2}, {1}, {1, 2}, {2}, {2}, {1}, {2}, {1}, {2}, {1}, {2}, {1}, {1, 2}, {1, 2}, {1, 2}, {1}, {2}, {2}, {2}, {1, 2}, {1}, {2}, {1}, {2}, {1}, {2}, {2}, {2}, {1}, {1, 2}, {1}, {2}, {2}, {1}, {2}];
InstructorRolesPerProgramm = [|{2, 4, 8, 12, 17, 22, 23, 25, 27, 37, 38, 50, 53, 54, 58, 63, 68}, {4, 7, 11, 19, 24, 27, 31, 37, 41, 50, 51, 54, 58, 59, 67}, {2, 8, 11, 12, 17, 21, 22, 23, 24, 25, 26, 31, 46, 48, 53, 59, 63, 67, 68, 72}|{4, 13, 15, 17, 22, 23, 27, 29, 37, 38, 47, 53, 55, 58, 64, 68}, {1, 4, 6, 11, 13, 15, 24, 27, 32, 37, 39, 41, 42, 43, 51, 57, 58, 65, 70}, {1, 6, 11, 13, 17, 22, 23, 24, 26, 35, 39, 43, 47, 49, 53, 55, 60, 64, 68}|];
InstructorsAvailability = [|1, |1, |1, |1, |0, |0, |1, |0, |0, |1, |0, |0, |1, |1, |1, |0, |0, |0, |0, |1, |1, |1, |1, |0, |1, |0, |1, |0, |1, |0, |1, |0, |1, |0, |1, |0, |1, |0, |0, |1, |1, |1, |0, |0, |0, |0, |1, |1, |0, |0, |0, |0, |0, |0, |0, |0, |0, |0, |0, |1, |0, |0, |0, |0, |1, |1, |0, |1, |0, |1, |0, |0, |1|];
StudentsProgramm = [2, 1, 1, 2, 1, 1, 1, 1, 2, 2];
StudentsDegree = [1, 1, 1, 1, 1, 1, 1, 1, 1, 1];
StudentsSupervisorId = [16, 30, 19, 45, 54, 17, 59, 22, 62, 15];
StudentsCourseIds = [{6}, {3}, {7}, {7}, {7}, {6}, {7}, {4}, {9}, {2}];
StudentsAvailability = [|0, |1, |1, |1, |0, |0, |1, |1, |1, |1|];
TheoryticalMinCard = [1, 0, 0, 0, 0, 0, 0, 0, 1, 0];
CoursesInstructorIds = [{2, 6, 8, 10, 14, 15, 16, 19, 27, 29, 33, 36, 40, 41, 42, 46, 48, 50, 51, 53, 54, 56, 59, 60, 62, 69}, {2, 5, 7, 8, 11, 13, 19, 20, 21, 24, 25, 27, 29, 39, 40, 46, 53, 57, 58, 60, 63, 64, 69, 70, 72, 73}, {1, 2, 3, 5, 6, 7, 8, 11, 12, 17, 18, 21, 23, 26, 27, 29, 30, 31, 33, 34, 37, 41, 43, 47, 49, 50, 51, 52, 54, 56, 57, 59, 60, 62, 64, 67, 69, 73}, {1, 3, 5, 8, 9, 10, 11, 12, 16, 17, 18, 20, 24, 26, 27, 29, 31, 32, 33, 34, 36, 38, 39, 41, 44, 45, 46, 48, 54, 56, 57, 59, 61, 64, 65, 66, 70, 71, 72, 73}, {1, 2, 4, 5, 8, 9, 10, 13, 17, 21, 23, 28, 29, 30, 31, 32, 33, 36, 37, 38, 39, 41, 45, 46, 48, 50, 51, 54, 57, 58, 60, 62, 69, 70, 73}, {9, 10, 11, 12, 14, 17, 19, 21, 22, 26, 27, 28, 30, 32, 33, 37, 42, 43, 47, 48, 50, 51, 53, 54, 57, 58, 59, 60, 61, 63, 65, 68, 69, 70, 71, 72, 73}, {1, 2, 3, 6, 7, 10, 11, 13, 16, 20, 21, 22, 26, 29, 30, 31, 32, 33, 35, 37, 39, 43, 44, 45, 48, 52, 53, 54, 57, 59, 61, 62, 63, 65, 66, 67, 68, 69, 70, 71}, {1, 2, 4, 5, 9, 12, 13, 15, 16, 21, 23, 24, 25, 26, 27, 29, 31, 32, 34, 36, 37, 38, 43, 45, 46, 47, 49, 50, 57, 62, 65, 68, 69, 73}, {11, 14, 17, 20, 30, 34, 37, 38, 40, 42, 43, 45, 47, 51, 52, 54, 58, 59, 61, 68}];
RolesDemands = [9, 4, 12];
RolesContinuity = [];
ExamLen = [1, 1, 1, 1, 1, 1, 1, 1, 1, 1];
LunchTsMinLen = 0;
LunchStarts = [6..9];
SupervisorAvailable = 0;
OptimalLunchLenght = [0, 1];
OptimalStartTs = [1, 0];
OptimalFinishTs = [0, 15];
MinimizeRooms = 300;
RolesSoftContinuity = [|1, 2, 3|4, 2, 3|];
SameDegreeInRoom = 10;
Mergeability = 2;
